12
0 29 82 46 0 52 72 42 51 55 29 0
29 0 55 46 42 43 43 23 23 31 41 51
82 55 0 68 46 55 23 0 41 29 79 21
46 0 68 0 82 15 72 31 62 42 21 51
68 42 46 82 0 0 23 52 21 46 0 58
52 43 55 15 74 0 61 23 55 31 33 37
72 43 23 72 23 61 0 42 23 31 77 0
42 23 43 0 52 0 42 0 33 15 37 33
51 23 41 62 21 55 23 33 0 29 62 46
55 31 29 42 0 31 31 15 29 0 51 21
29 0 79 21 82 33 77 37 62 51 0 65
74 51 21 51 0 37 37 33 46 21 65 0